
Gurobi 10.0.3 (linux64, gurobi_cl) logging started Thu Nov  9 11:49:44 2023

Set parameter Username
Set parameter TimeLimit to value 3600
Set parameter LogFile to value "RCPSP_1254.log"
Set parameter Threads to value 32
Academic license - for non-commercial use only - expires 2024-11-06
Using license file /home/jrivera6/gurobi-licenses/v1003/compute-0-36/gurobi.lic

Gurobi Optimizer version 10.0.3 build v10.0.3rc0 (linux64)
Copyright (c) 2023, Gurobi Optimization, LLC

Read MPS format model from file RCPSP_1254.mps
Reading time = 0.11 seconds
RCPSP_1254: 42947 rows, 17020 columns, 159151 nonzeros

CPU model: Intel(R) Xeon(R) Gold 6130 CPU @ 2.10GHz, instruction set [SSE2|AVX|AVX2|AVX512]
Thread count: 32 physical cores, 32 logical processors, using up to 32 threads

Optimize a model with 42947 rows, 17020 columns and 159151 nonzeros
Model fingerprint: 0x2626886f
Variable types: 92 continuous, 16928 integer (16928 binary)
Coefficient statistics:
  Matrix range     [1e+00, 5e+02]
  Objective range  [1e+00, 1e+00]
  Bounds range     [1e+00, 1e+00]
  RHS range        [1e+00, 5e+02]
Presolve removed 7907 rows and 2076 columns
Presolve time: 4.43s
Presolved: 35040 rows, 14944 columns, 136280 nonzeros
Variable types: 91 continuous, 14853 integer (14853 binary)

Deterministic concurrent LP optimizer: primal and dual simplex (primal and dual model)
Showing first log only...

Root relaxation presolved: 35040 rows, 14944 columns, 136280 nonzeros


Root simplex log...

Iteration    Objective       Primal Inf.    Dual Inf.      Time
       0    1.0400000e+02   5.103219e-03   1.198887e+08      6s
    2001    1.0400000e+02   0.000000e+00   0.000000e+00      6s
Concurrent spin time: 0.84s

Solved with dual simplex (dual model)

Root relaxation: objective 1.040000e+02, 17301 iterations, 1.83 seconds (0.13 work units)
Total elapsed time = 10.70s

    Nodes    |    Current Node    |     Objective Bounds      |     Work
 Expl Unexpl |  Obj  Depth IntInf | Incumbent    BestBd   Gap | It/Node Time

     0     0  104.00000    0  109          -  104.00000      -     -   11s
     0     0  104.00000    0  585          -  104.00000      -     -   28s
     0     0  104.00000    0  576          -  104.00000      -     -   28s
     0     0  104.00000    0  701          -  104.00000      -     -   30s
     0     0  104.00000    0   41          -  104.00000      -     -   45s
     0     0  104.00000    0   40          -  104.00000      -     -   48s
     0     0  104.00000    0    6          -  104.00000      -     -   55s
     0     0  104.00000    0   10          -  104.00000      -     -   56s
     0     0  104.00000    0    2          -  104.00000      -     -   62s
     0     0  104.00000    0   16          -  104.00000      -     -   65s
     0     0  104.00000    0    2          -  104.00000      -     -   70s
     0     0  104.00000    0    4          -  104.00000      -     -   72s
     0     0  104.00000    0    2          -  104.00000      -     -   76s
     0     0  104.00000    0   14          -  104.00000      -     -   76s
     0     0  104.00000    0    2          -  104.00000      -     -   80s
     0     0  104.00000    0    4          -  104.00000      -     -   80s
     0     0  104.00000    0    4          -  104.00000      -     -   86s
H    0     0                     518.0000000  104.00000  79.9%     -   88s
     0     0  104.00000    0    4  518.00000  104.00000  79.9%     -   88s
H    0     0                     128.0000000  104.00000  18.7%     -   98s
     0     0  104.00000    0   30  128.00000  104.00000  18.7%     -  140s
     0     0  104.00000    0  210  128.00000  104.00000  18.7%     -  145s
     0     0  104.00000    0  206  128.00000  104.00000  18.7%     -  145s
     0     0  104.00000    0  203  128.00000  104.00000  18.7%     -  147s
     0     0  104.00000    0   13  128.00000  104.00000  18.7%     -  155s
H    0     0                     121.0000000  104.00000  14.0%     -  157s
     0     0  104.00000    0   21  121.00000  104.00000  14.0%     -  157s
     0     0  104.00000    0   17  121.00000  104.00000  14.0%     -  160s
     0     0  104.00000    0   25  121.00000  104.00000  14.0%     -  161s
H    0     0                     120.0000000  104.00000  13.3%     -  165s
     0     0  104.00000    0   13  120.00000  104.00000  13.3%     -  165s
H    0     0                     119.0000000  104.00000  12.6%     -  166s
     0     0  104.00000    0   15  119.00000  104.00000  12.6%     -  167s
     0     0  104.00000    0   14  119.00000  104.00000  12.6%     -  171s
     0     0  104.00000    0  110  119.00000  104.00000  12.6%     -  172s
H    0     0                     115.0000000  104.00000  9.57%     -  173s
     0     0  104.00000    0    6  115.00000  104.00000  9.57%     -  178s
H    0     0                     114.0000000  104.00000  8.77%     -  181s
     0     0  104.00000    0    6  114.00000  104.00000  8.77%     -  183s
     0     0  104.00000    0    2  114.00000  104.00000  8.77%     -  186s
H    0     0                     112.0000000  104.00000  7.14%     -  186s
     0     0  104.00000    0   10  112.00000  104.00000  7.14%     -  192s
     0     0  104.00000    0  151  112.00000  104.00000  7.14%     -  193s
     0     0  104.00000    0   57  112.00000  104.00000  7.14%     -  196s
     0     0  104.00000    0    8  112.00000  104.00000  7.14%     -  198s
H    0     0                     106.0000000  104.00000  1.89%     -  198s
H    0     0                     105.0000000  104.00000  0.95%     -  201s
     0     0  104.00000    0   17  105.00000  104.00000  0.95%     -  238s
     0     0  104.00000    0   98  105.00000  104.00000  0.95%     -  243s
     0     0  104.00000    0   95  105.00000  104.00000  0.95%     -  244s
H    0     0                     104.0000000  104.00000  0.00%     -  246s
     0     0  104.00000    0    8  104.00000  104.00000  0.00%     -  246s

Cutting planes:
  Gomory: 36
  Cover: 130
  Implied bound: 25
  Clique: 47
  MIR: 276
  StrongCG: 18
  RLT: 79
  Relax-and-lift: 17

Explored 1 nodes (107853 simplex iterations) in 246.72 seconds (25.49 work units)
Thread count was 32 (of 32 available processors)

Solution count 10: 104 105 106 ... 128

Optimal solution found (tolerance 1.00e-04)
Best objective 1.040000000000e+02, best bound 1.040000000000e+02, gap 0.0000%

Wrote result file 'RCPSP_1254.sol'

